
(set-logic BVLIA)
(synth-fun int_bvand_1 ((s Int) (t Int)) Int
(
  (I Int) (Ic Int) (B Bool)
)
(
  (I Int  (
       Ic
       (+ I I )
       (* Ic I)
       (ite B I I)
    )
  )
  (Ic Int (
  s
  t
    0
1
  )
)
  (B Bool (
       (= I I)
       (>= I I)
       (not B)
     )
  )
)
)

(declare-var s Int)
(declare-var t Int)

(constraint (=> (and (<= 0 s 1) (<= 0 t 1)) (= (int_bvand_1 s t) (bv2nat (bvand ((_ int2bv 1) s) ((_ int2bv 1) t))) )))
(check-synth)
